NAME : B-n56-k7.420481.tour
COMMENT : Length = 420481
COMMENT : Found by LKH [Keld Helsgaun] Sun Dec 17 19:10:25 2017
TYPE : TOUR
DIMENSION : 62
TOUR_SECTION
1
19
47
9
18
15
45
52
41
58
42
46
30
38
16
8
20
59
44
11
29
6
13
24
51
23
39
10
57
26
54
7
25
43
48
40
5
60
2
53
28
17
36
22
27
62
4
14
34
3
55
31
35
32
21
56
12
61
49
37
33
50
-1
EOF
